14 2 2
1 4 5 6 9 13
0 2 5
0 4 3
1 2 3
2 0 5
2 1 3
2 3 2
2 4 4
2 7 3
3 2 2
3 4 7
3 5 4
3 6 3
4 0 3
4 2 4
4 3 7
5 3 4
6 3 3
6 8 7
6 11 9
6 12 2
7 2 3
7 8 3
7 9 6
7 10 7
8 6 7
8 7 3
9 7 6
10 7 7
11 6 9
12 6 2
12 13 1
13 12 1